p cnf 96 314
c t mc
-1 -2 -3 0
1 2 -3 0
-1 2 3 0
1 -2 3 0
-4 2 -5 0
4 -2 -5 0
-4 -2 5 0
4 2 5 0
6 -3 0
6 -5 0
3 5 -6 0
-8 -6 0
-8 7 0
6 -7 8 0
-11 9 0
-11 10 0
-9 -10 11 0
12 8 0
12 11 0
-8 -11 -12 0
14 10 0
14 -13 0
-10 13 -14 0
-16 -14 0
-16 15 0
14 -15 16 0
-20 18 0
-20 19 0
-18 -19 20 0
-20 17 -21 0
20 -17 -21 0
-20 -17 21 0
20 17 21 0
-17 -21 -22 0
17 21 -22 0
-17 21 22 0
17 -21 22 0
23 -6 0
23 4 0
6 -4 -23 0
24 22 0
24 -23 0
-22 23 -24 0
-16 24 -25 0
16 -24 -25 0
-16 -24 25 0
16 24 25 0
26 12 0
26 25 0
-12 -25 -26 0
-18 -27 -28 0
18 27 -28 0
-18 27 28 0
18 -27 28 0
5 28 -29 0
-5 -28 -29 0
5 -28 29 0
-5 28 29 0
-21 29 -30 0
21 -29 -30 0
-21 -29 30 0
21 29 30 0
-31 19 -32 0
31 -19 -32 0
-31 -19 32 0
31 19 32 0
33 30 0
33 -32 0
-30 32 -33 0
-2 -34 -35 0
2 34 -35 0
-2 34 35 0
2 -34 35 0
-37 35 0
-37 -36 0
-35 36 37 0
-39 -38 0
-39 13 0
38 -13 39 0
-39 17 -40 0
39 -17 -40 0
-39 -17 40 0
39 17 40 0
-41 -19 -42 0
41 19 -42 0
-41 19 42 0
41 -19 42 0
44 -42 0
44 43 0
42 -43 -44 0
-4 41 -45 0
4 -41 -45 0
-4 -41 45 0
4 41 45 0
-47 -46 0
-47 42 0
46 -42 47 0
45 47 -48 0
-45 -47 -48 0
45 -47 48 0
-45 47 48 0
-49 42 0
-49 5 0
-42 -5 49 0
50 49 0
50 14 0
-49 -14 -50 0
-51 50 0
-51 13 0
-50 -13 51 0
-52 -48 0
-52 -51 0
48 51 52 0
-53 -52 0
-53 28 0
52 -28 53 0
-54 -4 0
-54 -38 0
4 38 54 0
55 53 0
55 -54 0
-53 54 -55 0
-44 -55 -56 0
44 55 -56 0
-44 55 56 0
44 -55 56 0
-40 -56 -57 0
40 56 -57 0
-40 56 57 0
40 -56 57 0
43 19 -58 0
-43 -19 -58 0
43 -19 58 0
-43 19 58 0
50 27 -59 0
-50 -27 -59 0
50 -27 59 0
-50 27 59 0
-2 45 -60 0
2 -45 -60 0
-2 -45 60 0
2 45 60 0
-59 -60 -61 0
59 60 -61 0
-59 60 61 0
59 -60 61 0
-58 -61 -62 0
58 61 -62 0
-58 61 62 0
58 -61 62 0
1 63 -64 0
-1 -63 -64 0
1 -63 64 0
-1 63 64 0
27 -64 -65 0
-27 64 -65 0
27 64 65 0
-27 -64 65 0
39 -35 -66 0
-39 35 -66 0
39 35 66 0
-39 -35 66 0
66 -18 -67 0
-66 18 -67 0
66 18 67 0
-66 -18 67 0
65 -67 -68 0
-65 67 -68 0
65 67 68 0
-65 -67 68 0
62 68 -69 0
-62 -68 -69 0
62 -68 69 0
-62 68 69 0
70 57 0
70 -69 0
-57 69 -70 0
-37 -70 -71 0
37 70 -71 0
-37 70 71 0
37 -70 71 0
-72 33 0
-72 -71 0
-33 71 72 0
-34 38 -73 0
34 -38 -73 0
-34 -38 73 0
34 38 73 0
74 41 0
74 -73 0
-41 73 -74 0
74 61 -75 0
-74 -61 -75 0
74 -61 75 0
-74 61 75 0
29 -76 0
-29 -76 0
75 -76 -77 0
-75 76 -77 0
75 76 77 0
-75 -76 77 0
78 -72 0
78 77 0
72 -77 -78 0
79 39 0
79 -63 0
-39 63 -79 0
-7 80 0
7 80 0
-81 46 0
-81 -80 0
-46 80 81 0
82 -79 0
82 -81 0
79 81 -82 0
-83 2 0
-83 48 0
-2 -48 83 0
-84 -82 0
-84 -83 0
82 83 84 0
-63 29 -85 0
63 -29 -85 0
-63 -29 85 0
63 29 85 0
86 84 0
86 85 0
-84 -85 -86 0
87 1 0
87 63 0
-1 -63 -87 0
88 64 0
88 29 0
-64 -29 -88 0
87 88 -89 0
-87 -88 -89 0
87 -88 89 0
-87 88 89 0
90 86 0
90 -89 0
-86 89 -90 0
-78 90 -91 0
78 -90 -91 0
-78 -90 91 0
78 90 91 0
-92 26 0
-92 -91 0
-26 91 92 0
46 21 -93 0
-46 -21 -93 0
46 -21 93 0
-46 21 93 0
-27 -94 0
27 -94 0
95 93 0
95 94 0
-93 -94 -95 0
-92 -95 -96 0
92 95 -96 0
-92 95 96 0
92 -95 96 0
30 78 57 -93 87 -95 0
25 -69 -13 -63 -14 0
15 -53 89 33 0
-70 5 -24 0
-18 -67 20 0
33 12 -83 67 0
-38 -81 -62 -90 0
38 -51 34 0
5 36 58 -41 0
-10 -71 79 0
4 -26 -64 0
-54 -25 60 14 17 84 -32 8 0
-38 58 -31 45 47 27 0
44 -70 -72 16 96 0
50 23 20 24 -32 0
91 82 55 23 -86 80 36 0
-12 64 10 57 0
-42 76 -32 -81 -13 -86 0
-92 32 -77 28 27 -4 -95 0
-95 58 -81 0
-31 -53 -17 -27 -7 34 36 0
-53 -9 30 -36 -76 88 0
48 78 -96 68 28 -64 -61 77 66 42 0
-39 87 61 0
-35 -92 33 -29 42 13 -68 30 7 -3 0
-87 -1 8 -46 -31 32 0
-96 71 -50 16 67 -56 0
86 96 -94 -14 -42 -33 91 0
17 80 -53 -61 0
39 -24 -70 0
-14 -55 18 -46 29 0
-90 84 -30 -64 -38 -41 0
20 -17 54 -37 27 60 -77 -50 0
-67 -5 -45 53 10 0
-64 57 -93 82 -49 10 0
41 -29 -13 88 0
72 -75 -43 -61 -64 0
39 -95 -3 43 73 61 0
81 -71 -82 -58 -37 0
-35 56 96 49 50 55 93 0
88 70 -45 87 0
78 55 19 88 -2 0
-5 13 35 -60 0
-10 31 14 49 73 -20 23 -51 5 0
-46 -12 86 67 19 2 0
-20 16 -87 -78 36 0
78 -89 20 -14 0
-87 -73 80 -79 27 0
-16 17 73 -58 65 -19 95 -84 -74 0
43 -92 -1 7 54 -33 60 42 0
69 91 19 0
-19 -55 -18 -36 -15 70 0
96 0
